#Put Keywords Here, check Charge and Multiplicity.

 

0  1
C          -0.00000         0.00000         0.00000
H           1.09220         0.00000        -0.00000
H          -0.36406        -0.78929         0.66135
H          -0.36407        -0.17810        -1.01422
H          -0.36407         0.96739         0.35287

